85 43 22 63 90 30 67 23 15 53 99 79 8 96 29 19 7 74 2 37 45 72 41 25 
34 36 86 16 61 38 4 
49 57 39 83 87 18 11 32 47 88 31 12 55 46 98 56 58 68 77 78 35 
17 69 48 92 9 71 14 28 52 50 51 60 100 42 20 97 3 
40 82 6 94 73 75 24 54 33 81 76 10 62 5 44 91 84 70 66 1 26 21 95 59 27 65 64 13 93 89 80 

